10 41 11
1 1 1 0
1 2 3 2
1 3 4 5
1 4 8 9 6 7
1 5 13 11 12 10
1 6 17 15 14 16 18
1 7 19 23 22 20 21
1 8 26 24 27 28 25
1 9 30 33 31 34 29 32
1 10 36 38 37 39 40 35
1
1
1
1
1
1
1
1
1
1
1
1
1
1
1
1
1
1
1
1
1
1
1
1
1
1
1
1
1
1
1
1
1
1
1
1
1
1
1
1
1